32      4       
10      10      10      10      
0       0       0       0       0       14      2       3       4       5       6       7       8       9       10      11      12      13      14      16      
7       1       1       0       1       3       15      17      18      
1       4       0       1       7       4       17      18      19      25      
5       0       3       1       6       2       15      17      
2       4       1       7       0       2       15      17      
9       5       0       1       1       2       15      17      
3       6       6       6       0       2       15      17      
3       2       6       6       0       2       15      17      
8       6       3       0       3       6       18      19      22      23      24      25      
1       5       0       2       3       3       17      19      25      
2       4       0       3       3       3       17      19      25      
5       2       7       0       6       3       17      18      25      
5       3       0       4       3       3       17      18      19      
2       0       2       4       3       5       18      19      22      23      24      
3       4       3       6       0       5       19      20      23      24      25      
1       0       3       9       5       4       19      20      23      25      
6       0       6       2       5       4       20      22      23      24      
10      0       9       3       4       2       20      21      
8       0       3       3       4       2       21      28      
9       0       5       2       5       3       26      27      28      
7       0       4       6       2       2       26      27      
4       3       0       10      5       2       26      27      
3       3       0       3       6       2       27      31      
5       3       0       5       4       2       27      31      
10      3       5       3       0       2       27      31      
8       4       4       4       0       3       29      30      31      
2       5       5       1       0       2       29      30      
10      4       0       3       3       2       29      30      
1       9       1       4       0       1       32      
6       2       2       5       0       1       32      
2       6       5       0       5       1       32      
0       0       0       0       0       0       
